************************************************************************
file with basedata            : md352_.bas
initial value random generator: 306434338
************************************************************************
projects                      :  1
jobs (incl. supersource/sink ):  22
horizon                       :  153
RESOURCES
  - renewable                 :  2   R
  - nonrenewable              :  2   N
  - doubly constrained        :  0   D
************************************************************************
PROJECT INFORMATION:
pronr.  #jobs rel.date duedate tardcost  MPM-Time
    1     20      0       17       13       17
************************************************************************
PRECEDENCE RELATIONS:
jobnr.    #modes  #successors   successors
   1        1          3           2   3   4
   2        3          3           6   7  15
   3        3          3           5   9  10
   4        3          3          13  16  17
   5        3          3           8  11  12
   6        3          2          18  21
   7        3          2           8  14
   8        3          2          17  19
   9        3          2          14  17
  10        3          1          13
  11        3          2          14  21
  12        3          3          13  16  21
  13        3          2          15  20
  14        3          1          16
  15        3          1          19
  16        3          1          18
  17        3          1          20
  18        3          2          19  20
  19        3          1          22
  20        3          1          22
  21        3          1          22
  22        1          0        
************************************************************************
REQUESTS/DURATIONS:
jobnr. mode duration  R 1  R 2  N 1  N 2
------------------------------------------------------------------------
  1      1     0       0    0    0    0
  2      1     2       3    5    0    6
         2     5       3    4    0    5
         3     9       3    3    0    2
  3      1     2       9    9    0    7
         2     8       8    8    6    0
         3     9       6    4    3    0
  4      1     1       9    9    1    0
         2     3       8    8    0    7
         3     6       7    6    1    0
  5      1     3       6    8    7    0
         2     5       6    6    4    0
         3     9       6    2    0    8
  6      1     2       6    2    0    3
         2     4       6    2    7    0
         3    10       6    1    6    0
  7      1     4       6    5    0    6
         2     6       6    5    0    5
         3     7       5    5    0    4
  8      1     4       8    9    8    0
         2     8       7    8    5    0
         3     9       7    7    0    6
  9      1     6       6    3    6    0
         2     8       5    3    5    0
         3     8       2    3    6    0
 10      1     4       4    9    0    8
         2     6       3    8    0    6
         3     8       3    6    0    5
 11      1     2       8   10   10    0
         2     5       8    9   10    0
         3     6       4    8    0    7
 12      1     2       8    6    0   10
         2     2       7    6    3    0
         3     3       5    6    2    0
 13      1     2       5    8    0    6
         2     2       6    9    7    0
         3     7       2    8    5    0
 14      1     2       7    7    0   10
         2     8       6    7    0    4
         3    10       5    7    5    0
 15      1     3       4    7    9    0
         2     5       3    7    9    0
         3     7       2    7    8    0
 16      1     2       4    9    0    5
         2     5       2    9    0    5
         3     5       3    8    0    5
 17      1     1       4    9    0    5
         2     6       2    6    3    0
         3     6       3    3    0    5
 18      1     1       7    7    0    3
         2     9       7    7    3    0
         3     9       7    6    0    3
 19      1     3       6    5    9    0
         2     4       4    5    0    8
         3    10       3    4    0    8
 20      1     4       5    9    0    4
         2     5       4    7   10    0
         3     9       4    4    0    2
 21      1     1       7    4    0    6
         2     5       5    4    0    4
         3     6       3    4    6    0
 22      1     0       0    0    0    0
************************************************************************
RESOURCEAVAILABILITIES:
  R 1  R 2  N 1  N 2
   32   33  100  115
************************************************************************
MAXIMAL LAGS:
from  to  type  delay
    1   22   ES      0
    1    2   ES      0
    2   22   ES      0
    1    3   ES      0
    3   22   ES      0
    1    4   ES      0
    4   22   ES      0
    1    5   ES      0
    5   22   ES      0
    1    6   ES      0
    6   22   ES      0
    1    7   ES      0
    7   22   ES      0
    1    8   ES      0
    8   22   ES      0
    1    9   ES      0
    9   22   ES      0
    1   10   ES      0
   10   22   ES      0
    1   11   ES      0
   11   22   ES      0
    1   12   ES      0
   12   22   ES      0
    1   13   ES      0
   13   22   ES      0
    1   14   ES      0
   14   22   ES      0
    1   15   ES      0
   15   22   ES      0
    1   16   ES      0
   16   22   ES      0
    1   17   ES      0
   17   22   ES      0
    1   18   ES      0
   18   22   ES      0
    1   19   ES      0
   19   22   ES      0
    1   20   ES      0
   20   22   ES      0
    1   21   ES      0
   21   22   ES      0
    1   22   ES      0
    2    6   SS     -1
    2    6   SE     -2
    2    6   ES     -9
    2    6   EE     -5
    2    7   SS     -8
    2    7   SE      3
    2    7   ES      1
    2    7   EE    -10
    2   15   SS      8
    2   15   SE      2
    2   15   ES      7
    2   15   EE     -3
    3    5   SS     11
    3    5   SE      5
    3    5   ES    -12
    3    5   EE      9
    3    9   SS     -8
    3    9   SE     -4
    3    9   ES     -1
    3    9   EE     10
    3   10   SS     -1
    3   10   SE      6
    3   10   ES      5
    3   10   EE     -1
    4   13   SS     -9
    4   13   SE      0
    4   13   ES    -11
    4   13   EE     -8
    4   16   SS     -9
    4   16   SE     -9
    4   16   ES      6
    4   16   EE      9
    4   17   SS     -9
    4   17   SE     -2
    4   17   ES      5
    4   17   EE      6
    5    8   SS    -10
    5    8   SE     -7
    5    8   ES      1
    5    8   EE      5
    5   11   SS      0
    5   11   SE     12
    5   11   ES     10
    5   11   EE     -3
    5   12   SS     11
    5   12   SE      7
    5   12   ES      5
    5   12   EE      1
    6   18   SS     -4
    6   18   SE      3
    6   18   ES      5
    6   18   EE      1
    6   21   SS      4
    6   21   SE      9
    6   21   ES      1
    6   21   EE     -8
    7    8   SS     -6
    7    8   SE      2
    8    7   SE      0
    7    8   ES      0
    7    8   EE    -11
    7   14   SS    -12
    7   14   SE      4
    7   14   ES      4
    7   14   EE     -4
    8   17   SS     -3
    8   17   SE      2
    8   17   ES     -4
    8   17   EE    -12
    8   19   SS      4
    8   19   SE     11
    8   19   ES     -5
    8   19   EE      2
    9   14   SS      9
    9   14   SE      5
    9   14   ES    -10
    9   14   EE      6
    9   17   SS     -9
    9   17   SE      6
    9   17   ES    -11
    9   17   EE      3
   10   13   SS     -3
   10   13   SE      7
   10   13   ES      6
   10   13   EE     -8
   11   14   SS    -10
   11   14   SE      1
   11   14   ES     -3
   11   14   EE    -11
   11   21   SS    -11
   11   21   SE      0
   11   21   ES      6
   11   21   EE     11
   12   13   SS     11
   12   13   SE     12
   12   13   ES      4
   12   13   EE     12
   12   16   SS     -6
   12   16   SE      0
   12   16   ES      7
   12   16   EE     11
   12   21   SS      8
   12   21   SE     -8
   12   21   ES     -6
   12   21   EE     -2
   13   15   SS     -5
   13   15   SE     -4
   13   15   ES      5
   13   15   EE     -4
   13   20   SS      4
   13   20   SE      1
   13   20   ES     -4
   13   20   EE      2
   14   16   SS    -11
   14   16   SE      4
   14   16   ES     -7
   14   16   EE     -9
   15   19   SS     -5
   15   19   SE      6
   15   19   ES      4
   15   19   EE      1
   16   18   SS     -2
   16   18   SE     -4
   16   18   ES      1
   16   18   EE     -7
   17   20   SS     -8
   17   20   SE     10
   17   20   ES    -12
   17   20   EE     -7
   18   19   SS    -10
   18   19   SE     -7
   18   19   ES     -6
   18   19   EE     11
   18   20   SS     11
   18   20   SE      3
   18   20   ES      9
   18   20   EE     11
************************************************************************
